(declare-const x String)
(declare-const y String)
(assert (str.in.re x (re.* (re.union (str.to.re "'\x0b')") (re.union (str.to.re "Dy_<_f") (str.to.re "321"))))))
(assert (= 5 (str.len x)))
(check-sat)
(get-model)
